NAME : ftv55.tour
COMMENT : Optimum tour for ftv55.tsp (Length 1608)
TYPE : TOUR
DIMENSION : 56
TOUR_SECTION  
0
0
0
0
0
0
0
0
0
0
0
0
0
0
0
0
0
0
0
0
0
0
0
0
0
0
0
0
0
0
0
0
0
0
0
0
0
0
0
0
0
0
0
0
0
0
0
0
0
0
0
0
0
0
0
0
-1
EOF
